(set-logic QF_LRA)
(declare-fun X0 () Real )
(declare-fun Y0 () Real )
(declare-fun X1 () Real )
(declare-fun Y1 () Real )
(declare-fun X2 () Real )
(declare-fun Y2 () Real )
(declare-fun X3 () Real )
(declare-fun Y3 () Real )
(declare-fun X4 () Real )
(declare-fun Y4 () Real )
(declare-fun X5 () Real )
(declare-fun Y5 () Real )
(declare-fun X6 () Real )
(declare-fun Y6 () Real )
(declare-fun X7 () Real )
(declare-fun Y7 () Real )
(declare-fun X8 () Real )
(declare-fun Y8 () Real )
(declare-fun X9 () Real )
(declare-fun Y9 () Real )
(declare-fun X10 () Real )
(declare-fun Y10 () Real )
(declare-fun X11 () Real )
(declare-fun Y11 () Real )
(declare-fun X12 () Real )
(declare-fun Y12 () Real )
(declare-fun X13 () Real )
(declare-fun Y13 () Real )
(declare-fun X14 () Real )
(declare-fun Y14 () Real )
(declare-fun X15 () Real )
(declare-fun Y15 () Real )
(declare-fun X16 () Real )
(declare-fun Y16 () Real )
(declare-fun X17 () Real )
(declare-fun Y17 () Real )
(declare-fun Z () Real )
(declare-fun k () Real )
(assert (let
(( $goal (>= Z k) ))
(let
((
$phi ( and 
( or ( <= ( + X0 17 ) X1 )  ( <= ( + X1 45 ) X0 )  ( <= ( + Y0 38 ) Y1 )  ( <= ( + Y1 6 ) Y0 )  )
( or ( <= ( + X0 17 ) X2 )  ( <= ( + X2 9 ) X0 )  ( <= ( + Y0 38 ) Y2 )  ( <= ( + Y2 5 ) Y0 )  )
( or ( <= ( + X0 17 ) X3 )  ( <= ( + X3 22 ) X0 )  ( <= ( + Y0 38 ) Y3 )  ( <= ( + Y3 32 ) Y0 )  )
( or ( <= ( + X0 17 ) X4 )  ( <= ( + X4 5 ) X0 )  ( <= ( + Y0 38 ) Y4 )  ( <= ( + Y4 5 ) Y0 )  )
( or ( <= ( + X0 17 ) X5 )  ( <= ( + X5 24 ) X0 )  ( <= ( + Y0 38 ) Y5 )  ( <= ( + Y5 63 ) Y0 )  )
( or ( <= ( + X0 17 ) X6 )  ( <= ( + X6 18 ) X0 )  ( <= ( + Y0 38 ) Y6 )  ( <= ( + Y6 100 ) Y0 )  )
( or ( <= ( + X0 17 ) X7 )  ( <= ( + X7 23 ) X0 )  ( <= ( + Y0 38 ) Y7 )  ( <= ( + Y7 76 ) Y0 )  )
( or ( <= ( + X0 17 ) X8 )  ( <= ( + X8 46 ) X0 )  ( <= ( + Y0 38 ) Y8 )  ( <= ( + Y8 84 ) Y0 )  )
( or ( <= ( + X0 17 ) X9 )  ( <= ( + X9 81 ) X0 )  ( <= ( + Y0 38 ) Y9 )  ( <= ( + Y9 4 ) Y0 )  )
( or ( <= ( + X0 17 ) X10 )  ( <= ( + X10 31 ) X0 )  ( <= ( + Y0 38 ) Y10 )  ( <= ( + Y10 33 ) Y0 )  )
( or ( <= ( + X0 17 ) X11 )  ( <= ( + X11 36 ) X0 )  ( <= ( + Y0 38 ) Y11 )  ( <= ( + Y11 67 ) Y0 )  )
( or ( <= ( + X0 17 ) X12 )  ( <= ( + X12 28 ) X0 )  ( <= ( + Y0 38 ) Y12 )  ( <= ( + Y12 14 ) Y0 )  )
( or ( <= ( + X0 17 ) X13 )  ( <= ( + X13 44 ) X0 )  ( <= ( + Y0 38 ) Y13 )  ( <= ( + Y13 49 ) Y0 )  )
( or ( <= ( + X0 17 ) X14 )  ( <= ( + X14 85 ) X0 )  ( <= ( + Y0 38 ) Y14 )  ( <= ( + Y14 63 ) Y0 )  )
( or ( <= ( + X0 17 ) X15 )  ( <= ( + X15 36 ) X0 )  ( <= ( + Y0 38 ) Y15 )  ( <= ( + Y15 74 ) Y0 )  )
( or ( <= ( + X0 17 ) X16 )  ( <= ( + X16 45 ) X0 )  ( <= ( + Y0 38 ) Y16 )  ( <= ( + Y16 22 ) Y0 )  )
( or ( <= ( + X0 17 ) X17 )  ( <= ( + X17 63 ) X0 )  ( <= ( + Y0 38 ) Y17 )  ( <= ( + Y17 67 ) Y0 )  )
( or ( <= ( + X1 45 ) X2 )  ( <= ( + X2 9 ) X1 )  ( <= ( + Y1 6 ) Y2 )  ( <= ( + Y2 5 ) Y1 )  )
( or ( <= ( + X1 45 ) X3 )  ( <= ( + X3 22 ) X1 )  ( <= ( + Y1 6 ) Y3 )  ( <= ( + Y3 32 ) Y1 )  )
( or ( <= ( + X1 45 ) X4 )  ( <= ( + X4 5 ) X1 )  ( <= ( + Y1 6 ) Y4 )  ( <= ( + Y4 5 ) Y1 )  )
( or ( <= ( + X1 45 ) X5 )  ( <= ( + X5 24 ) X1 )  ( <= ( + Y1 6 ) Y5 )  ( <= ( + Y5 63 ) Y1 )  )
( or ( <= ( + X1 45 ) X6 )  ( <= ( + X6 18 ) X1 )  ( <= ( + Y1 6 ) Y6 )  ( <= ( + Y6 100 ) Y1 )  )
( or ( <= ( + X1 45 ) X7 )  ( <= ( + X7 23 ) X1 )  ( <= ( + Y1 6 ) Y7 )  ( <= ( + Y7 76 ) Y1 )  )
( or ( <= ( + X1 45 ) X8 )  ( <= ( + X8 46 ) X1 )  ( <= ( + Y1 6 ) Y8 )  ( <= ( + Y8 84 ) Y1 )  )
( or ( <= ( + X1 45 ) X9 )  ( <= ( + X9 81 ) X1 )  ( <= ( + Y1 6 ) Y9 )  ( <= ( + Y9 4 ) Y1 )  )
( or ( <= ( + X1 45 ) X10 )  ( <= ( + X10 31 ) X1 )  ( <= ( + Y1 6 ) Y10 )  ( <= ( + Y10 33 ) Y1 )  )
( or ( <= ( + X1 45 ) X11 )  ( <= ( + X11 36 ) X1 )  ( <= ( + Y1 6 ) Y11 )  ( <= ( + Y11 67 ) Y1 )  )
( or ( <= ( + X1 45 ) X12 )  ( <= ( + X12 28 ) X1 )  ( <= ( + Y1 6 ) Y12 )  ( <= ( + Y12 14 ) Y1 )  )
( or ( <= ( + X1 45 ) X13 )  ( <= ( + X13 44 ) X1 )  ( <= ( + Y1 6 ) Y13 )  ( <= ( + Y13 49 ) Y1 )  )
( or ( <= ( + X1 45 ) X14 )  ( <= ( + X14 85 ) X1 )  ( <= ( + Y1 6 ) Y14 )  ( <= ( + Y14 63 ) Y1 )  )
( or ( <= ( + X1 45 ) X15 )  ( <= ( + X15 36 ) X1 )  ( <= ( + Y1 6 ) Y15 )  ( <= ( + Y15 74 ) Y1 )  )
( or ( <= ( + X1 45 ) X16 )  ( <= ( + X16 45 ) X1 )  ( <= ( + Y1 6 ) Y16 )  ( <= ( + Y16 22 ) Y1 )  )
( or ( <= ( + X1 45 ) X17 )  ( <= ( + X17 63 ) X1 )  ( <= ( + Y1 6 ) Y17 )  ( <= ( + Y17 67 ) Y1 )  )
( or ( <= ( + X2 9 ) X3 )  ( <= ( + X3 22 ) X2 )  ( <= ( + Y2 5 ) Y3 )  ( <= ( + Y3 32 ) Y2 )  )
( or ( <= ( + X2 9 ) X4 )  ( <= ( + X4 5 ) X2 )  ( <= ( + Y2 5 ) Y4 )  ( <= ( + Y4 5 ) Y2 )  )
( or ( <= ( + X2 9 ) X5 )  ( <= ( + X5 24 ) X2 )  ( <= ( + Y2 5 ) Y5 )  ( <= ( + Y5 63 ) Y2 )  )
( or ( <= ( + X2 9 ) X6 )  ( <= ( + X6 18 ) X2 )  ( <= ( + Y2 5 ) Y6 )  ( <= ( + Y6 100 ) Y2 )  )
( or ( <= ( + X2 9 ) X7 )  ( <= ( + X7 23 ) X2 )  ( <= ( + Y2 5 ) Y7 )  ( <= ( + Y7 76 ) Y2 )  )
( or ( <= ( + X2 9 ) X8 )  ( <= ( + X8 46 ) X2 )  ( <= ( + Y2 5 ) Y8 )  ( <= ( + Y8 84 ) Y2 )  )
( or ( <= ( + X2 9 ) X9 )  ( <= ( + X9 81 ) X2 )  ( <= ( + Y2 5 ) Y9 )  ( <= ( + Y9 4 ) Y2 )  )
( or ( <= ( + X2 9 ) X10 )  ( <= ( + X10 31 ) X2 )  ( <= ( + Y2 5 ) Y10 )  ( <= ( + Y10 33 ) Y2 )  )
( or ( <= ( + X2 9 ) X11 )  ( <= ( + X11 36 ) X2 )  ( <= ( + Y2 5 ) Y11 )  ( <= ( + Y11 67 ) Y2 )  )
( or ( <= ( + X2 9 ) X12 )  ( <= ( + X12 28 ) X2 )  ( <= ( + Y2 5 ) Y12 )  ( <= ( + Y12 14 ) Y2 )  )
( or ( <= ( + X2 9 ) X13 )  ( <= ( + X13 44 ) X2 )  ( <= ( + Y2 5 ) Y13 )  ( <= ( + Y13 49 ) Y2 )  )
( or ( <= ( + X2 9 ) X14 )  ( <= ( + X14 85 ) X2 )  ( <= ( + Y2 5 ) Y14 )  ( <= ( + Y14 63 ) Y2 )  )
( or ( <= ( + X2 9 ) X15 )  ( <= ( + X15 36 ) X2 )  ( <= ( + Y2 5 ) Y15 )  ( <= ( + Y15 74 ) Y2 )  )
( or ( <= ( + X2 9 ) X16 )  ( <= ( + X16 45 ) X2 )  ( <= ( + Y2 5 ) Y16 )  ( <= ( + Y16 22 ) Y2 )  )
( or ( <= ( + X2 9 ) X17 )  ( <= ( + X17 63 ) X2 )  ( <= ( + Y2 5 ) Y17 )  ( <= ( + Y17 67 ) Y2 )  )
( or ( <= ( + X3 22 ) X4 )  ( <= ( + X4 5 ) X3 )  ( <= ( + Y3 32 ) Y4 )  ( <= ( + Y4 5 ) Y3 )  )
( or ( <= ( + X3 22 ) X5 )  ( <= ( + X5 24 ) X3 )  ( <= ( + Y3 32 ) Y5 )  ( <= ( + Y5 63 ) Y3 )  )
( or ( <= ( + X3 22 ) X6 )  ( <= ( + X6 18 ) X3 )  ( <= ( + Y3 32 ) Y6 )  ( <= ( + Y6 100 ) Y3 )  )
( or ( <= ( + X3 22 ) X7 )  ( <= ( + X7 23 ) X3 )  ( <= ( + Y3 32 ) Y7 )  ( <= ( + Y7 76 ) Y3 )  )
( or ( <= ( + X3 22 ) X8 )  ( <= ( + X8 46 ) X3 )  ( <= ( + Y3 32 ) Y8 )  ( <= ( + Y8 84 ) Y3 )  )
( or ( <= ( + X3 22 ) X9 )  ( <= ( + X9 81 ) X3 )  ( <= ( + Y3 32 ) Y9 )  ( <= ( + Y9 4 ) Y3 )  )
( or ( <= ( + X3 22 ) X10 )  ( <= ( + X10 31 ) X3 )  ( <= ( + Y3 32 ) Y10 )  ( <= ( + Y10 33 ) Y3 )  )
( or ( <= ( + X3 22 ) X11 )  ( <= ( + X11 36 ) X3 )  ( <= ( + Y3 32 ) Y11 )  ( <= ( + Y11 67 ) Y3 )  )
( or ( <= ( + X3 22 ) X12 )  ( <= ( + X12 28 ) X3 )  ( <= ( + Y3 32 ) Y12 )  ( <= ( + Y12 14 ) Y3 )  )
( or ( <= ( + X3 22 ) X13 )  ( <= ( + X13 44 ) X3 )  ( <= ( + Y3 32 ) Y13 )  ( <= ( + Y13 49 ) Y3 )  )
( or ( <= ( + X3 22 ) X14 )  ( <= ( + X14 85 ) X3 )  ( <= ( + Y3 32 ) Y14 )  ( <= ( + Y14 63 ) Y3 )  )
( or ( <= ( + X3 22 ) X15 )  ( <= ( + X15 36 ) X3 )  ( <= ( + Y3 32 ) Y15 )  ( <= ( + Y15 74 ) Y3 )  )
( or ( <= ( + X3 22 ) X16 )  ( <= ( + X16 45 ) X3 )  ( <= ( + Y3 32 ) Y16 )  ( <= ( + Y16 22 ) Y3 )  )
( or ( <= ( + X3 22 ) X17 )  ( <= ( + X17 63 ) X3 )  ( <= ( + Y3 32 ) Y17 )  ( <= ( + Y17 67 ) Y3 )  )
( or ( <= ( + X4 5 ) X5 )  ( <= ( + X5 24 ) X4 )  ( <= ( + Y4 5 ) Y5 )  ( <= ( + Y5 63 ) Y4 )  )
( or ( <= ( + X4 5 ) X6 )  ( <= ( + X6 18 ) X4 )  ( <= ( + Y4 5 ) Y6 )  ( <= ( + Y6 100 ) Y4 )  )
( or ( <= ( + X4 5 ) X7 )  ( <= ( + X7 23 ) X4 )  ( <= ( + Y4 5 ) Y7 )  ( <= ( + Y7 76 ) Y4 )  )
( or ( <= ( + X4 5 ) X8 )  ( <= ( + X8 46 ) X4 )  ( <= ( + Y4 5 ) Y8 )  ( <= ( + Y8 84 ) Y4 )  )
( or ( <= ( + X4 5 ) X9 )  ( <= ( + X9 81 ) X4 )  ( <= ( + Y4 5 ) Y9 )  ( <= ( + Y9 4 ) Y4 )  )
( or ( <= ( + X4 5 ) X10 )  ( <= ( + X10 31 ) X4 )  ( <= ( + Y4 5 ) Y10 )  ( <= ( + Y10 33 ) Y4 )  )
( or ( <= ( + X4 5 ) X11 )  ( <= ( + X11 36 ) X4 )  ( <= ( + Y4 5 ) Y11 )  ( <= ( + Y11 67 ) Y4 )  )
( or ( <= ( + X4 5 ) X12 )  ( <= ( + X12 28 ) X4 )  ( <= ( + Y4 5 ) Y12 )  ( <= ( + Y12 14 ) Y4 )  )
( or ( <= ( + X4 5 ) X13 )  ( <= ( + X13 44 ) X4 )  ( <= ( + Y4 5 ) Y13 )  ( <= ( + Y13 49 ) Y4 )  )
( or ( <= ( + X4 5 ) X14 )  ( <= ( + X14 85 ) X4 )  ( <= ( + Y4 5 ) Y14 )  ( <= ( + Y14 63 ) Y4 )  )
( or ( <= ( + X4 5 ) X15 )  ( <= ( + X15 36 ) X4 )  ( <= ( + Y4 5 ) Y15 )  ( <= ( + Y15 74 ) Y4 )  )
( or ( <= ( + X4 5 ) X16 )  ( <= ( + X16 45 ) X4 )  ( <= ( + Y4 5 ) Y16 )  ( <= ( + Y16 22 ) Y4 )  )
( or ( <= ( + X4 5 ) X17 )  ( <= ( + X17 63 ) X4 )  ( <= ( + Y4 5 ) Y17 )  ( <= ( + Y17 67 ) Y4 )  )
( or ( <= ( + X5 24 ) X6 )  ( <= ( + X6 18 ) X5 )  ( <= ( + Y5 63 ) Y6 )  ( <= ( + Y6 100 ) Y5 )  )
( or ( <= ( + X5 24 ) X7 )  ( <= ( + X7 23 ) X5 )  ( <= ( + Y5 63 ) Y7 )  ( <= ( + Y7 76 ) Y5 )  )
( or ( <= ( + X5 24 ) X8 )  ( <= ( + X8 46 ) X5 )  ( <= ( + Y5 63 ) Y8 )  ( <= ( + Y8 84 ) Y5 )  )
( or ( <= ( + X5 24 ) X9 )  ( <= ( + X9 81 ) X5 )  ( <= ( + Y5 63 ) Y9 )  ( <= ( + Y9 4 ) Y5 )  )
( or ( <= ( + X5 24 ) X10 )  ( <= ( + X10 31 ) X5 )  ( <= ( + Y5 63 ) Y10 )  ( <= ( + Y10 33 ) Y5 )  )
( or ( <= ( + X5 24 ) X11 )  ( <= ( + X11 36 ) X5 )  ( <= ( + Y5 63 ) Y11 )  ( <= ( + Y11 67 ) Y5 )  )
( or ( <= ( + X5 24 ) X12 )  ( <= ( + X12 28 ) X5 )  ( <= ( + Y5 63 ) Y12 )  ( <= ( + Y12 14 ) Y5 )  )
( or ( <= ( + X5 24 ) X13 )  ( <= ( + X13 44 ) X5 )  ( <= ( + Y5 63 ) Y13 )  ( <= ( + Y13 49 ) Y5 )  )
( or ( <= ( + X5 24 ) X14 )  ( <= ( + X14 85 ) X5 )  ( <= ( + Y5 63 ) Y14 )  ( <= ( + Y14 63 ) Y5 )  )
( or ( <= ( + X5 24 ) X15 )  ( <= ( + X15 36 ) X5 )  ( <= ( + Y5 63 ) Y15 )  ( <= ( + Y15 74 ) Y5 )  )
( or ( <= ( + X5 24 ) X16 )  ( <= ( + X16 45 ) X5 )  ( <= ( + Y5 63 ) Y16 )  ( <= ( + Y16 22 ) Y5 )  )
( or ( <= ( + X5 24 ) X17 )  ( <= ( + X17 63 ) X5 )  ( <= ( + Y5 63 ) Y17 )  ( <= ( + Y17 67 ) Y5 )  )
( or ( <= ( + X6 18 ) X7 )  ( <= ( + X7 23 ) X6 )  ( <= ( + Y6 100 ) Y7 )  ( <= ( + Y7 76 ) Y6 )  )
( or ( <= ( + X6 18 ) X8 )  ( <= ( + X8 46 ) X6 )  ( <= ( + Y6 100 ) Y8 )  ( <= ( + Y8 84 ) Y6 )  )
( or ( <= ( + X6 18 ) X9 )  ( <= ( + X9 81 ) X6 )  ( <= ( + Y6 100 ) Y9 )  ( <= ( + Y9 4 ) Y6 )  )
( or ( <= ( + X6 18 ) X10 )  ( <= ( + X10 31 ) X6 )  ( <= ( + Y6 100 ) Y10 )  ( <= ( + Y10 33 ) Y6 )  )
( or ( <= ( + X6 18 ) X11 )  ( <= ( + X11 36 ) X6 )  ( <= ( + Y6 100 ) Y11 )  ( <= ( + Y11 67 ) Y6 )  )
( or ( <= ( + X6 18 ) X12 )  ( <= ( + X12 28 ) X6 )  ( <= ( + Y6 100 ) Y12 )  ( <= ( + Y12 14 ) Y6 )  )
( or ( <= ( + X6 18 ) X13 )  ( <= ( + X13 44 ) X6 )  ( <= ( + Y6 100 ) Y13 )  ( <= ( + Y13 49 ) Y6 )  )
( or ( <= ( + X6 18 ) X14 )  ( <= ( + X14 85 ) X6 )  ( <= ( + Y6 100 ) Y14 )  ( <= ( + Y14 63 ) Y6 )  )
( or ( <= ( + X6 18 ) X15 )  ( <= ( + X15 36 ) X6 )  ( <= ( + Y6 100 ) Y15 )  ( <= ( + Y15 74 ) Y6 )  )
( or ( <= ( + X6 18 ) X16 )  ( <= ( + X16 45 ) X6 )  ( <= ( + Y6 100 ) Y16 )  ( <= ( + Y16 22 ) Y6 )  )
( or ( <= ( + X6 18 ) X17 )  ( <= ( + X17 63 ) X6 )  ( <= ( + Y6 100 ) Y17 )  ( <= ( + Y17 67 ) Y6 )  )
( or ( <= ( + X7 23 ) X8 )  ( <= ( + X8 46 ) X7 )  ( <= ( + Y7 76 ) Y8 )  ( <= ( + Y8 84 ) Y7 )  )
( or ( <= ( + X7 23 ) X9 )  ( <= ( + X9 81 ) X7 )  ( <= ( + Y7 76 ) Y9 )  ( <= ( + Y9 4 ) Y7 )  )
( or ( <= ( + X7 23 ) X10 )  ( <= ( + X10 31 ) X7 )  ( <= ( + Y7 76 ) Y10 )  ( <= ( + Y10 33 ) Y7 )  )
( or ( <= ( + X7 23 ) X11 )  ( <= ( + X11 36 ) X7 )  ( <= ( + Y7 76 ) Y11 )  ( <= ( + Y11 67 ) Y7 )  )
( or ( <= ( + X7 23 ) X12 )  ( <= ( + X12 28 ) X7 )  ( <= ( + Y7 76 ) Y12 )  ( <= ( + Y12 14 ) Y7 )  )
( or ( <= ( + X7 23 ) X13 )  ( <= ( + X13 44 ) X7 )  ( <= ( + Y7 76 ) Y13 )  ( <= ( + Y13 49 ) Y7 )  )
( or ( <= ( + X7 23 ) X14 )  ( <= ( + X14 85 ) X7 )  ( <= ( + Y7 76 ) Y14 )  ( <= ( + Y14 63 ) Y7 )  )
( or ( <= ( + X7 23 ) X15 )  ( <= ( + X15 36 ) X7 )  ( <= ( + Y7 76 ) Y15 )  ( <= ( + Y15 74 ) Y7 )  )
( or ( <= ( + X7 23 ) X16 )  ( <= ( + X16 45 ) X7 )  ( <= ( + Y7 76 ) Y16 )  ( <= ( + Y16 22 ) Y7 )  )
( or ( <= ( + X7 23 ) X17 )  ( <= ( + X17 63 ) X7 )  ( <= ( + Y7 76 ) Y17 )  ( <= ( + Y17 67 ) Y7 )  )
( or ( <= ( + X8 46 ) X9 )  ( <= ( + X9 81 ) X8 )  ( <= ( + Y8 84 ) Y9 )  ( <= ( + Y9 4 ) Y8 )  )
( or ( <= ( + X8 46 ) X10 )  ( <= ( + X10 31 ) X8 )  ( <= ( + Y8 84 ) Y10 )  ( <= ( + Y10 33 ) Y8 )  )
( or ( <= ( + X8 46 ) X11 )  ( <= ( + X11 36 ) X8 )  ( <= ( + Y8 84 ) Y11 )  ( <= ( + Y11 67 ) Y8 )  )
( or ( <= ( + X8 46 ) X12 )  ( <= ( + X12 28 ) X8 )  ( <= ( + Y8 84 ) Y12 )  ( <= ( + Y12 14 ) Y8 )  )
( or ( <= ( + X8 46 ) X13 )  ( <= ( + X13 44 ) X8 )  ( <= ( + Y8 84 ) Y13 )  ( <= ( + Y13 49 ) Y8 )  )
( or ( <= ( + X8 46 ) X14 )  ( <= ( + X14 85 ) X8 )  ( <= ( + Y8 84 ) Y14 )  ( <= ( + Y14 63 ) Y8 )  )
( or ( <= ( + X8 46 ) X15 )  ( <= ( + X15 36 ) X8 )  ( <= ( + Y8 84 ) Y15 )  ( <= ( + Y15 74 ) Y8 )  )
( or ( <= ( + X8 46 ) X16 )  ( <= ( + X16 45 ) X8 )  ( <= ( + Y8 84 ) Y16 )  ( <= ( + Y16 22 ) Y8 )  )
( or ( <= ( + X8 46 ) X17 )  ( <= ( + X17 63 ) X8 )  ( <= ( + Y8 84 ) Y17 )  ( <= ( + Y17 67 ) Y8 )  )
( or ( <= ( + X9 81 ) X10 )  ( <= ( + X10 31 ) X9 )  ( <= ( + Y9 4 ) Y10 )  ( <= ( + Y10 33 ) Y9 )  )
( or ( <= ( + X9 81 ) X11 )  ( <= ( + X11 36 ) X9 )  ( <= ( + Y9 4 ) Y11 )  ( <= ( + Y11 67 ) Y9 )  )
( or ( <= ( + X9 81 ) X12 )  ( <= ( + X12 28 ) X9 )  ( <= ( + Y9 4 ) Y12 )  ( <= ( + Y12 14 ) Y9 )  )
( or ( <= ( + X9 81 ) X13 )  ( <= ( + X13 44 ) X9 )  ( <= ( + Y9 4 ) Y13 )  ( <= ( + Y13 49 ) Y9 )  )
( or ( <= ( + X9 81 ) X14 )  ( <= ( + X14 85 ) X9 )  ( <= ( + Y9 4 ) Y14 )  ( <= ( + Y14 63 ) Y9 )  )
( or ( <= ( + X9 81 ) X15 )  ( <= ( + X15 36 ) X9 )  ( <= ( + Y9 4 ) Y15 )  ( <= ( + Y15 74 ) Y9 )  )
( or ( <= ( + X9 81 ) X16 )  ( <= ( + X16 45 ) X9 )  ( <= ( + Y9 4 ) Y16 )  ( <= ( + Y16 22 ) Y9 )  )
( or ( <= ( + X9 81 ) X17 )  ( <= ( + X17 63 ) X9 )  ( <= ( + Y9 4 ) Y17 )  ( <= ( + Y17 67 ) Y9 )  )
( or ( <= ( + X10 31 ) X11 )  ( <= ( + X11 36 ) X10 )  ( <= ( + Y10 33 ) Y11 )  ( <= ( + Y11 67 ) Y10 )  )
( or ( <= ( + X10 31 ) X12 )  ( <= ( + X12 28 ) X10 )  ( <= ( + Y10 33 ) Y12 )  ( <= ( + Y12 14 ) Y10 )  )
( or ( <= ( + X10 31 ) X13 )  ( <= ( + X13 44 ) X10 )  ( <= ( + Y10 33 ) Y13 )  ( <= ( + Y13 49 ) Y10 )  )
( or ( <= ( + X10 31 ) X14 )  ( <= ( + X14 85 ) X10 )  ( <= ( + Y10 33 ) Y14 )  ( <= ( + Y14 63 ) Y10 )  )
( or ( <= ( + X10 31 ) X15 )  ( <= ( + X15 36 ) X10 )  ( <= ( + Y10 33 ) Y15 )  ( <= ( + Y15 74 ) Y10 )  )
( or ( <= ( + X10 31 ) X16 )  ( <= ( + X16 45 ) X10 )  ( <= ( + Y10 33 ) Y16 )  ( <= ( + Y16 22 ) Y10 )  )
( or ( <= ( + X10 31 ) X17 )  ( <= ( + X17 63 ) X10 )  ( <= ( + Y10 33 ) Y17 )  ( <= ( + Y17 67 ) Y10 )  )
( or ( <= ( + X11 36 ) X12 )  ( <= ( + X12 28 ) X11 )  ( <= ( + Y11 67 ) Y12 )  ( <= ( + Y12 14 ) Y11 )  )
( or ( <= ( + X11 36 ) X13 )  ( <= ( + X13 44 ) X11 )  ( <= ( + Y11 67 ) Y13 )  ( <= ( + Y13 49 ) Y11 )  )
( or ( <= ( + X11 36 ) X14 )  ( <= ( + X14 85 ) X11 )  ( <= ( + Y11 67 ) Y14 )  ( <= ( + Y14 63 ) Y11 )  )
( or ( <= ( + X11 36 ) X15 )  ( <= ( + X15 36 ) X11 )  ( <= ( + Y11 67 ) Y15 )  ( <= ( + Y15 74 ) Y11 )  )
( or ( <= ( + X11 36 ) X16 )  ( <= ( + X16 45 ) X11 )  ( <= ( + Y11 67 ) Y16 )  ( <= ( + Y16 22 ) Y11 )  )
( or ( <= ( + X11 36 ) X17 )  ( <= ( + X17 63 ) X11 )  ( <= ( + Y11 67 ) Y17 )  ( <= ( + Y17 67 ) Y11 )  )
( or ( <= ( + X12 28 ) X13 )  ( <= ( + X13 44 ) X12 )  ( <= ( + Y12 14 ) Y13 )  ( <= ( + Y13 49 ) Y12 )  )
( or ( <= ( + X12 28 ) X14 )  ( <= ( + X14 85 ) X12 )  ( <= ( + Y12 14 ) Y14 )  ( <= ( + Y14 63 ) Y12 )  )
( or ( <= ( + X12 28 ) X15 )  ( <= ( + X15 36 ) X12 )  ( <= ( + Y12 14 ) Y15 )  ( <= ( + Y15 74 ) Y12 )  )
( or ( <= ( + X12 28 ) X16 )  ( <= ( + X16 45 ) X12 )  ( <= ( + Y12 14 ) Y16 )  ( <= ( + Y16 22 ) Y12 )  )
( or ( <= ( + X12 28 ) X17 )  ( <= ( + X17 63 ) X12 )  ( <= ( + Y12 14 ) Y17 )  ( <= ( + Y17 67 ) Y12 )  )
( or ( <= ( + X13 44 ) X14 )  ( <= ( + X14 85 ) X13 )  ( <= ( + Y13 49 ) Y14 )  ( <= ( + Y14 63 ) Y13 )  )
( or ( <= ( + X13 44 ) X15 )  ( <= ( + X15 36 ) X13 )  ( <= ( + Y13 49 ) Y15 )  ( <= ( + Y15 74 ) Y13 )  )
( or ( <= ( + X13 44 ) X16 )  ( <= ( + X16 45 ) X13 )  ( <= ( + Y13 49 ) Y16 )  ( <= ( + Y16 22 ) Y13 )  )
( or ( <= ( + X13 44 ) X17 )  ( <= ( + X17 63 ) X13 )  ( <= ( + Y13 49 ) Y17 )  ( <= ( + Y17 67 ) Y13 )  )
( or ( <= ( + X14 85 ) X15 )  ( <= ( + X15 36 ) X14 )  ( <= ( + Y14 63 ) Y15 )  ( <= ( + Y15 74 ) Y14 )  )
( or ( <= ( + X14 85 ) X16 )  ( <= ( + X16 45 ) X14 )  ( <= ( + Y14 63 ) Y16 )  ( <= ( + Y16 22 ) Y14 )  )
( or ( <= ( + X14 85 ) X17 )  ( <= ( + X17 63 ) X14 )  ( <= ( + Y14 63 ) Y17 )  ( <= ( + Y17 67 ) Y14 )  )
( or ( <= ( + X15 36 ) X16 )  ( <= ( + X16 45 ) X15 )  ( <= ( + Y15 74 ) Y16 )  ( <= ( + Y16 22 ) Y15 )  )
( or ( <= ( + X15 36 ) X17 )  ( <= ( + X17 63 ) X15 )  ( <= ( + Y15 74 ) Y17 )  ( <= ( + Y17 67 ) Y15 )  )
( or ( <= ( + X16 45 ) X17 )  ( <= ( + X17 63 ) X16 )  ( <= ( + Y16 22 ) Y17 )  ( <= ( + Y17 67 ) Y16 )  )
( >= X0 0)
( <= ( + X0 17) Z)
( >= Y0 0)
( <= ( + Y0 38 ) 212)
( >= X1 0)
( <= ( + X1 45) Z)
( >= Y1 0)
( <= ( + Y1 6 ) 212)
( >= X2 0)
( <= ( + X2 9) Z)
( >= Y2 0)
( <= ( + Y2 5 ) 212)
( >= X3 0)
( <= ( + X3 22) Z)
( >= Y3 0)
( <= ( + Y3 32 ) 212)
( >= X4 0)
( <= ( + X4 5) Z)
( >= Y4 0)
( <= ( + Y4 5 ) 212)
( >= X5 0)
( <= ( + X5 24) Z)
( >= Y5 0)
( <= ( + Y5 63 ) 212)
( >= X6 0)
( <= ( + X6 18) Z)
( >= Y6 0)
( <= ( + Y6 100 ) 212)
( >= X7 0)
( <= ( + X7 23) Z)
( >= Y7 0)
( <= ( + Y7 76 ) 212)
( >= X8 0)
( <= ( + X8 46) Z)
( >= Y8 0)
( <= ( + Y8 84 ) 212)
( >= X9 0)
( <= ( + X9 81) Z)
( >= Y9 0)
( <= ( + Y9 4 ) 212)
( >= X10 0)
( <= ( + X10 31) Z)
( >= Y10 0)
( <= ( + Y10 33 ) 212)
( >= X11 0)
( <= ( + X11 36) Z)
( >= Y11 0)
( <= ( + Y11 67 ) 212)
( >= X12 0)
( <= ( + X12 28) Z)
( >= Y12 0)
( <= ( + Y12 14 ) 212)
( >= X13 0)
( <= ( + X13 44) Z)
( >= Y13 0)
( <= ( + Y13 49 ) 212)
( >= X14 0)
( <= ( + X14 85) Z)
( >= Y14 0)
( <= ( + Y14 63 ) 212)
( >= X15 0)
( <= ( + X15 36) Z)
( >= Y15 0)
( <= ( + Y15 74 ) 212)
( >= X16 0)
( <= ( + X16 45) Z)
( >= Y16 0)
( <= ( + Y16 22 ) 212)
( >= X17 0)
( <= ( + X17 63) Z)
( >= Y17 0)
( <= ( + Y17 67 ) 212)
) )
)(=> $phi $goal))))